n_res = 4;
rc = [ 20, 24, 21, 25 ];
n_tasks = 30;
d = [ 2, 5, 9, 7, 6, 7, 9, 2, 5, 2, 10, 8, 5, 8, 6, 7, 7, 5, 9, 10, 8, 10, 7, 1, 2, 4, 7, 9, 2, 1 ];
rr = [| 5, 10, 4, 3, 0, 1, 9, 5, 3, 6, 7, 0, 6, 0, 0, 5, 9, 4, 0, 0, 8, 8, 4, 4, 1, 4, 7, 0, 5, 0
      | 0, 7, 9, 0, 10, 7, 0, 0, 0, 10, 0, 1, 0, 3, 9, 0, 7, 8, 0, 4, 2, 8, 6, 1, 2, 8, 8, 1, 7, 1
      | 3, 5, 8, 6, 1, 2, 8, 0, 8, 9, 1, 5, 9, 6, 4, 10, 5, 8, 1, 0, 7, 0, 9, 10, 9, 9, 0, 0, 10, 8
      | 0, 5, 0, 2, 0, 7, 7, 0, 8, 0, 0, 7, 4, 6, 9, 5, 5, 4, 1, 5, 0, 5, 10, 10, 8, 7, 4, 10, 10, 1 |];
suc = [ { 2 }, 
        { 1 }, 
        { 4 }, 
        { 3 }, 
        { 6 }, 
        { 5 }, 
        { 8 }, 
        { 7 }, 
        { 10 }, 
        { 9 }, 
        { 12 }, 
        { 11 }, 
        { 14 }, 
        { 13 }, 
        { 16 }, 
        { 15 }, 
        { 18 }, 
        { 17 }, 
        { 20 }, 
        { 19 }, 
        { 22 }, 
        { 21 }, 
        { 24 }, 
        { 23 }, 
        { 26 }, 
        { 25 }, 
        { 28 }, 
        { 27 }, 
        { 30 }, 
        { 29 }]; 
